NAME : portcgen-20-8
COMMENT : portcgen N=20, seed=8
TYPE : TSP
DIMENSION : 20
EDGE_WEIGHT_TYPE : EUC_2D
NODE_COORD_SECTION
1 -212095 12887
2 145083 144311
3 8570 -352928
4 -50770 -71966
5 -392793 131959
6 -16686 33855
7 -47555 -37279
8 168872 -194516
9 148509 -261444
10 118479 86402
11 56576 29660
12 106642 -157353
13 -92126 1567
14 -78431 163086
15 -117639 439974
16 -195264 332388
17 -273973 230035
18 -53680 159571
19 56540 -335318
20 -90733 255074
